p cnf 36 69
c ind 1 7 2 3 8 4 5 6 45 46 9 10 11 12 13 18 14 15 16 17 19 47 20 21 22 23 24 48 25 26 27 28 30 29 49 50 31 32 33 34 35 36 0
-4 3 0
-7 1 0
8 -7 0
-8 2 0
10 6 0
-10 -5 0
-10 -8 0
12 9 0
13 9 0
-13 -4 0
-15 -3 0
16 14 0
-17 -7 0
-18 5 0
-18 7 0
-18 -13 0
19 -15 0
20 6 0
20 10 0
23 22 0
-23 11 0
25 -16 0
-25 -9 0
-26 -3 0
-26 -25 0
-27 2 0
28 21 0
-28 22 0
-29 7 0
30 -1 0
30 -14 0
30 -27 0
32 -2 0
32 5 0
-33 4 0
-33 -29 0
34 31 0
-34 23 0
-34 29 0
35 6 0
35 -21 0
-36 -21 0
-36 -24 0
7 -11 33 0
-1 -4 -6 8 0
17 -19 -31 0
-13 -17 -28 0
7 10 -24 0
1 4 -19 0
-11 -22 -27 0
4 11 16 -32 0
27 28 -32 0
-4 27 28 0
3 -5 -28 0
12 -28 36 0
-4 -17 27 0
17 19 -24 0
18 -28 36 0
-4 -31 33 0
-6 -27 28 0
17 -19 24 0
-10 12 28 0
-12 24 -33 0
24 -28 36 0
5 10 -35 0
4 16 19 0
19 21 -30 0
-3 10 21 0
4 8 -12 0
c MUST MUTIPLY BY 2**0
